c 64_4_checker.cnf
c
c field = 64
c formula set type = 4_checker
c
p cnf 5 58
120 
122 
124 
128 
-130 
121 
123 
125 
129 
-131 
122 
124 
128 
130 
-120 
123 
125 
129 
131 
-121 
122 
124 
128 
130 
-132 
123 
125 
129 
131 
-133 
124 
128 
130 
132 
-122 
125 
129 
131 
133 
-123 
124 
128 
130 
132 
-134 
125 
129 
131 
133 
-135 
128 
130 
132 
134 
-124 
129 
131 
133 
135 
-125 
128 
130 
132 
134 
-136 
129 
131 
133 
135 
-137 
6 
36 
66 
96 
-156 
7 
37 
67 
97 
-157 
36 
66 
96 
156 
-6 
37 
67 
97 
157 
-7 
36 
66 
96 
156 
-186 
37 
67 
97 
157 
-187 
66 
96 
156 
186 
-36 
67 
97 
157 
187 
-37 
66 
96 
156 
186 
-216 
67 
97 
157 
187 
-217 
96 
156 
186 
216 
-66 
97 
157 
187 
217 
-67 
96 
156 
186 
216 
-246 
97 
157 
187 
217 
-247 
156 
186 
216 
246 
-96 
157 
187 
217 
247 
-97 
156 
186 
216 
246 
-276 
157 
187 
217 
247 
-277 
30 
62 
94 
158 
-190 
31 
63 
95 
159 
-191 
62 
94 
158 
190 
-30 
63 
95 
159 
191 
-31 
62 
94 
158 
190 
-222 
63 
95 
159 
191 
-223 
94 
158 
190 
222 
-62 
95 
159 
191 
223 
-63 
94 
158 
190 
222 
-254 
95 
159 
191 
223 
-255 
158 
190 
222 
254 
-94 
159 
191 
223 
255 
-95 
158 
190 
222 
254 
-286 
159 
191 
223 
255 
-287 
14 
42 
70 
98 
-154 
15 
43 
71 
99 
-155 
42 
70 
98 
154 
-14 
43 
71 
99 
155 
-15 
42 
70 
98 
154 
-182 
43 
71 
99 
155 
-183 
70 
98 
154 
182 
-42 
71 
99 
155 
183 
-43 
70 
98 
154 
182 
-210 
71 
99 
155 
183 
-211 
98 
154 
182 
210 
-70 
99 
155 
183 
211 
-71 
